$ From "The Most Difficult Logic Problems" by Dr Gareth Moore

letting height be 7
letting length be 7
letting mines_per_box be 2 

letting fixed be
[
    [17,5,5,17,17,17,2],
    [4,17,17,5,17,17,4],
    [2,17,5,17,17,4,17],
    [1,17,17,17,7,8,4],
    [17,17,17,-2,17,17,17],
    [3,4,5,6,6,5,3],
    [17,17,1,17,17,17,1]
]